
===== New CPLEX run =====
Instance: /home/yorig/tuner/mpils-tests/instances/miplib/easy/lotsize.mps
Config: /scratch/yorig/mpils-results-grid-seconds-5-watchdog/easy/24proc/seed-5/4_lotsize_seed-5_20260504_011421/iterated_local_search/run_5_worker_22/ils_config_13041031210945797951.prm
========================

Selected objective sense:  MINIMIZE
Selected objective  name:  R1921
Selected RHS        name:  B
Selected bound      name:  BOUND
Wall watchdog: enabled factor=1 grace=1 limit=6 seconds
Version identifier: 22.1.2.0 | 2024-11-26 | 0edbb82fd
CPXPARAM_Advance                                 0
CPXPARAM_Simplex_PGradient                       -1
CPXPARAM_Preprocessing_Dual                      -1
CPXPARAM_Threads                                 8
CPXPARAM_Parallel                                1
CPXPARAM_MIP_Cuts_Cliques                        1
CPXPARAM_Preprocessing_CoeffReduce               3
CPXPARAM_MIP_Cuts_Covers                         1
CPXPARAM_MIP_Strategy_SubAlgorithm               3
CPXPARAM_Preprocessing_Relax                     0
CPXPARAM_MIP_Cuts_Implied                        2
CPXPARAM_MIP_Cuts_GUBCovers                      2
CPXPARAM_MIP_Limits_GomoryCand                   50
CPXPARAM_MIP_Cuts_Gomory                         1
CPXPARAM_MIP_Cuts_MIRCut                         1
CPXPARAM_MIP_Cuts_Disjunctive                    3
CPXPARAM_MIP_Limits_AggForCut                    2
CPXPARAM_Emphasis_MIP                            2
CPXPARAM_Preprocessing_Symmetry                  2
CPXPARAM_Barrier_Ordering                        3
CPXPARAM_Preprocessing_Fill                      2
CPXPARAM_TimeLimit                               5
CPXPARAM_MIP_Limits_CutsFactor                   8
Tried aggregator 1 time.
MIP Presolve eliminated 595 rows and 0 columns.
MIP Presolve added 1190 rows and 0 columns.
MIP Presolve modified 10 coefficients.
Reduced MIP has 2515 rows, 2985 columns, and 7755 nonzeros.
Reduced MIP has 1195 binaries, 0 generals, 0 SOSs, and 0 indicators.
Presolve time = 0.00 sec. (4.57 ticks)
Probing fixed 0 vars, tightened 5487 bounds.
Probing time = 0.01 sec. (18.38 ticks)
Tried aggregator 2 times.
MIP Presolve modified 1206 coefficients.
Aggregator did 10 substitutions.
Reduced MIP has 2505 rows, 2975 columns, and 7735 nonzeros.
Reduced MIP has 1195 binaries, 0 generals, 0 SOSs, and 0 indicators.
Presolve time = 0.00 sec. (5.33 ticks)
Probing fixed 0 vars, tightened 2401 bounds.
Probing time = 0.00 sec. (6.41 ticks)
Clique table members: 190.
MIP emphasis: optimality.
MIP search method: dynamic search.
Parallel mode: deterministic, using up to 8 threads.
Root relaxation solution time = 0.01 sec. (9.34 ticks)

        Nodes                                         Cuts/
   Node  Left     Objective  IInf  Best Integer    Best Bound    ItCnt     Gap

      0     0   348385.3466   471                 348385.3466     1432         
      0     0   485163.1887   605                   Cuts: 726     5598         
*     0+    0                       1.39622e+07   485163.1887            96.53%
*     0+    0                       1.38961e+07   485163.1887            96.51%
      0     0   619061.9934   641   1.38961e+07     Cuts: 726    13674   95.55%
      0     0   734404.6047   687   1.38961e+07     Cuts: 726    23107   94.72%

GUB cover cuts applied:  0
Clique cuts applied:  3
Cover cuts applied:  10
Implied bound cuts applied:  11
Mixed integer rounding cuts applied:  1022
Flow path cuts applied:  40
Multi commodity flow cuts applied:  51
Gomory fractional cuts applied:  15
Disjunctive cuts applied:  87
Cone linearizations applied:  0

Root node processing (before b&c):
  Real time             =    5.00 sec. (8674.93 ticks)
Parallel b&c, 8 threads:
  Real time             =    0.00 sec. (0.00 ticks)
  Sync time (average)   =    0.00 sec.
  Wait time (average)   =    0.00 sec.
                          ------------
Total (root+branch&cut) =    5.00 sec. (8674.93 ticks)
Gap: 94.72%
Upper bound: 1.38961e+07
Lower bound: 734405
Termination status: Normal
End of CPLEX run. Time: 5.00511 seconds

===== New CPLEX run =====
Instance: /home/yorig/tuner/mpils-tests/instances/miplib/easy/lotsize.mps
Config: /scratch/yorig/mpils-results-grid-seconds-5-watchdog/easy/24proc/seed-5/4_lotsize_seed-5_20260504_011421/iterated_local_search/run_5_worker_22/ils_config_8469823436725478588.prm
========================

Selected objective sense:  MINIMIZE
Selected objective  name:  R1921
Selected RHS        name:  B
Selected bound      name:  BOUND
Wall watchdog: enabled factor=1 grace=1 limit=6 seconds
Version identifier: 22.1.2.0 | 2024-11-26 | 0edbb82fd
CPXPARAM_Advance                                 0
CPXPARAM_Simplex_PGradient                       -1
CPXPARAM_Preprocessing_Dual                      -1
CPXPARAM_Threads                                 8
CPXPARAM_Parallel                                1
CPXPARAM_MIP_Cuts_Cliques                        1
CPXPARAM_Preprocessing_CoeffReduce               3
CPXPARAM_MIP_Cuts_Covers                         1
CPXPARAM_MIP_Strategy_SubAlgorithm               3
CPXPARAM_Preprocessing_Relax                     0
CPXPARAM_MIP_Cuts_Implied                        2
CPXPARAM_MIP_Cuts_GUBCovers                      2
CPXPARAM_MIP_Limits_GomoryCand                   50
CPXPARAM_MIP_Cuts_Gomory                         1
CPXPARAM_MIP_Cuts_MIRCut                         1
CPXPARAM_MIP_Cuts_Disjunctive                    3
CPXPARAM_MIP_Limits_AggForCut                    2
CPXPARAM_Preprocessing_Symmetry                  2
CPXPARAM_Barrier_Ordering                        3
CPXPARAM_Preprocessing_Fill                      2
CPXPARAM_TimeLimit                               5
CPXPARAM_MIP_Limits_CutsFactor                   8
Tried aggregator 1 time.
MIP Presolve eliminated 595 rows and 0 columns.
MIP Presolve added 1190 rows and 0 columns.
MIP Presolve modified 10 coefficients.
Reduced MIP has 2515 rows, 2985 columns, and 7755 nonzeros.
Reduced MIP has 1195 binaries, 0 generals, 0 SOSs, and 0 indicators.
Presolve time = 0.00 sec. (4.57 ticks)
Probing fixed 0 vars, tightened 5487 bounds.
Probing time = 0.01 sec. (18.38 ticks)
Tried aggregator 2 times.
MIP Presolve modified 1206 coefficients.
Aggregator did 10 substitutions.
Reduced MIP has 2505 rows, 2975 columns, and 7735 nonzeros.
Reduced MIP has 1195 binaries, 0 generals, 0 SOSs, and 0 indicators.
Presolve time = 0.00 sec. (5.33 ticks)
Probing fixed 0 vars, tightened 2401 bounds.
Probing time = 0.00 sec. (6.41 ticks)
Clique table members: 190.
MIP emphasis: balance optimality and feasibility.
MIP search method: dynamic search.
Parallel mode: deterministic, using up to 8 threads.
Root relaxation solution time = 0.01 sec. (9.34 ticks)

        Nodes                                         Cuts/
   Node  Left     Objective  IInf  Best Integer    Best Bound    ItCnt     Gap

      0     0   348385.3466   471                 348385.3466     1432         
      0     0   485163.1887   605                   Cuts: 726     5598         
*     0+    0                       1.39622e+07   485163.1887            96.53%
*     0+    0                       1.38961e+07   485163.1887            96.51%
      0     0   619061.9934   641   1.38961e+07     Cuts: 726    13674   95.55%
      0     0   734404.6047   687   1.38961e+07     Cuts: 726    23107   94.72%

GUB cover cuts applied:  0
Clique cuts applied:  3
Cover cuts applied:  10
Implied bound cuts applied:  11
Mixed integer rounding cuts applied:  1022
Flow path cuts applied:  40
Multi commodity flow cuts applied:  51
Gomory fractional cuts applied:  15
Disjunctive cuts applied:  87
Cone linearizations applied:  0

Root node processing (before b&c):
  Real time             =    5.00 sec. (8716.44 ticks)
Parallel b&c, 8 threads:
  Real time             =    0.00 sec. (0.00 ticks)
  Sync time (average)   =    0.00 sec.
  Wait time (average)   =    0.00 sec.
                          ------------
Total (root+branch&cut) =    5.00 sec. (8716.44 ticks)
Gap: 94.72%
Upper bound: 1.38961e+07
Lower bound: 734405
Termination status: Normal
End of CPLEX run. Time: 5.0045 seconds

===== New CPLEX run =====
Instance: /home/yorig/tuner/mpils-tests/instances/miplib/easy/lotsize.mps
Config: /scratch/yorig/mpils-results-grid-seconds-5-watchdog/easy/24proc/seed-5/4_lotsize_seed-5_20260504_011421/iterated_local_search/run_5_worker_22/ils_config_11019657118892180943.prm
========================

Selected objective sense:  MINIMIZE
Selected objective  name:  R1921
Selected RHS        name:  B
Selected bound      name:  BOUND
Wall watchdog: enabled factor=1 grace=1 limit=6 seconds
Version identifier: 22.1.2.0 | 2024-11-26 | 0edbb82fd
CPXPARAM_Advance                                 0
CPXPARAM_Simplex_PGradient                       -1
CPXPARAM_Preprocessing_Dual                      -1
CPXPARAM_Threads                                 8
CPXPARAM_Parallel                                1
CPXPARAM_MIP_Cuts_Cliques                        1
CPXPARAM_Preprocessing_CoeffReduce               3
CPXPARAM_MIP_Cuts_Covers                         1
CPXPARAM_MIP_Strategy_SubAlgorithm               3
CPXPARAM_Preprocessing_Relax                     0
CPXPARAM_MIP_Cuts_Implied                        2
CPXPARAM_MIP_Cuts_GUBCovers                      2
CPXPARAM_MIP_Limits_GomoryCand                   50
CPXPARAM_MIP_Cuts_Gomory                         1
CPXPARAM_MIP_Cuts_MIRCut                         1
CPXPARAM_MIP_Cuts_Disjunctive                    3
CPXPARAM_MIP_Limits_AggForCut                    2
CPXPARAM_Emphasis_MIP                            2
CPXPARAM_Preprocessing_Symmetry                  3
CPXPARAM_Barrier_Ordering                        3
CPXPARAM_Preprocessing_Fill                      2
CPXPARAM_TimeLimit                               5
CPXPARAM_MIP_Limits_CutsFactor                   8
Tried aggregator 1 time.
MIP Presolve eliminated 595 rows and 0 columns.
MIP Presolve added 1190 rows and 0 columns.
MIP Presolve modified 10 coefficients.
Reduced MIP has 2515 rows, 2985 columns, and 7755 nonzeros.
Reduced MIP has 1195 binaries, 0 generals, 0 SOSs, and 0 indicators.
Presolve time = 0.00 sec. (4.57 ticks)
Probing fixed 0 vars, tightened 5487 bounds.
Probing time = 0.01 sec. (18.38 ticks)
Tried aggregator 2 times.
Detecting symmetries...
MIP Presolve modified 1206 coefficients.
Aggregator did 10 substitutions.
Reduced MIP has 2505 rows, 2975 columns, and 7735 nonzeros.
Reduced MIP has 1195 binaries, 0 generals, 0 SOSs, and 0 indicators.
Presolve time = 0.00 sec. (6.70 ticks)
Probing fixed 0 vars, tightened 2401 bounds.
Probing time = 0.00 sec. (6.41 ticks)
Clique table members: 190.
MIP emphasis: optimality.
MIP search method: dynamic search.
Parallel mode: deterministic, using up to 8 threads.
Root relaxation solution time = 0.01 sec. (9.34 ticks)

        Nodes                                         Cuts/
   Node  Left     Objective  IInf  Best Integer    Best Bound    ItCnt     Gap

      0     0   348385.3466   471                 348385.3466     1432         
      0     0   485163.1887   605                   Cuts: 726     5598         
*     0+    0                       1.39622e+07   485163.1887            96.53%
*     0+    0                       1.38961e+07   485163.1887            96.51%
      0     0   619061.9934   641   1.38961e+07     Cuts: 726    13674   95.55%
      0     0   734404.6047   687   1.38961e+07     Cuts: 726    23107   94.72%

GUB cover cuts applied:  0
Clique cuts applied:  3
Cover cuts applied:  10
Implied bound cuts applied:  11
Mixed integer rounding cuts applied:  1022
Flow path cuts applied:  40
Multi commodity flow cuts applied:  51
Gomory fractional cuts applied:  15
Disjunctive cuts applied:  87
Cone linearizations applied:  0

Root node processing (before b&c):
  Real time             =    5.01 sec. (8745.10 ticks)
Parallel b&c, 8 threads:
  Real time             =    0.00 sec. (0.00 ticks)
  Sync time (average)   =    0.00 sec.
  Wait time (average)   =    0.00 sec.
                          ------------
Total (root+branch&cut) =    5.01 sec. (8745.10 ticks)
Gap: 94.72%
Upper bound: 1.38961e+07
Lower bound: 734405
Termination status: Normal
End of CPLEX run. Time: 5.00826 seconds

===== New CPLEX run =====
Instance: /home/yorig/tuner/mpils-tests/instances/miplib/easy/lotsize.mps
Config: /scratch/yorig/mpils-results-grid-seconds-5-watchdog/easy/24proc/seed-5/4_lotsize_seed-5_20260504_011421/iterated_local_search/run_5_worker_22/ils_config_8905012251053802124.prm
========================

Selected objective sense:  MINIMIZE
Selected objective  name:  R1921
Selected RHS        name:  B
Selected bound      name:  BOUND
Wall watchdog: enabled factor=1 grace=1 limit=6 seconds
Version identifier: 22.1.2.0 | 2024-11-26 | 0edbb82fd
CPXPARAM_Advance                                 0
CPXPARAM_Simplex_PGradient                       -1
CPXPARAM_Preprocessing_Dual                      -1
CPXPARAM_Threads                                 8
CPXPARAM_Parallel                                1
CPXPARAM_MIP_Cuts_Cliques                        1
CPXPARAM_Preprocessing_CoeffReduce               0
CPXPARAM_MIP_Cuts_Covers                         1
CPXPARAM_MIP_Strategy_SubAlgorithm               3
CPXPARAM_Preprocessing_Relax                     0
CPXPARAM_MIP_Cuts_Implied                        2
CPXPARAM_MIP_Cuts_GUBCovers                      2
CPXPARAM_MIP_Limits_GomoryCand                   50
CPXPARAM_MIP_Cuts_Gomory                         1
CPXPARAM_MIP_Cuts_MIRCut                         1
CPXPARAM_MIP_Cuts_Disjunctive                    3
CPXPARAM_MIP_Limits_AggForCut                    2
CPXPARAM_Emphasis_MIP                            2
CPXPARAM_Preprocessing_Symmetry                  2
CPXPARAM_Barrier_Ordering                        3
CPXPARAM_Preprocessing_Fill                      2
CPXPARAM_TimeLimit                               5
CPXPARAM_MIP_Limits_CutsFactor                   8
Tried aggregator 1 time.
MIP Presolve eliminated 590 rows and 0 columns.
MIP Presolve added 1190 rows and 0 columns.
Reduced MIP has 2520 rows, 2985 columns, and 7765 nonzeros.
Reduced MIP has 1195 binaries, 0 generals, 0 SOSs, and 0 indicators.
Presolve time = 0.00 sec. (4.28 ticks)
Probing fixed 0 vars, tightened 5146 bounds.
Probing time = 0.01 sec. (18.21 ticks)
Tried aggregator 2 times.
MIP Presolve eliminated 5 rows and 0 columns.
MIP Presolve modified 616 coefficients.
Aggregator did 10 substitutions.
Reduced MIP has 2505 rows, 2975 columns, and 7735 nonzeros.
Reduced MIP has 1195 binaries, 0 generals, 0 SOSs, and 0 indicators.
Presolve time = 0.00 sec. (7.11 ticks)
Probing fixed 0 vars, tightened 2342 bounds.
Probing time = 0.00 sec. (6.42 ticks)
Clique table members: 190.
MIP emphasis: optimality.
MIP search method: dynamic search.
Parallel mode: deterministic, using up to 8 threads.
Root relaxation solution time = 0.01 sec. (9.34 ticks)

        Nodes                                         Cuts/
   Node  Left     Objective  IInf  Best Integer    Best Bound    ItCnt     Gap

      0     0   348385.3466   472                 348385.3466     1432         
      0     0   485835.1138   606                   Cuts: 726     5582         
*     0+    0                       1.39622e+07   485835.1138            96.52%
*     0+    0                       1.38961e+07   485835.1138            96.50%
      0     0   618495.6518   636   1.38961e+07     Cuts: 726    13879   95.55%
      0     0   742664.7958   677   1.38961e+07     Cuts: 726    21261   94.66%

GUB cover cuts applied:  0
Clique cuts applied:  3
Cover cuts applied:  10
Implied bound cuts applied:  12
Mixed integer rounding cuts applied:  1027
Flow path cuts applied:  41
Multi commodity flow cuts applied:  50
Gomory fractional cuts applied:  18
Disjunctive cuts applied:  87
Cone linearizations applied:  0

Root node processing (before b&c):
  Real time             =    5.00 sec. (8559.16 ticks)
Parallel b&c, 8 threads:
  Real time             =    0.00 sec. (0.00 ticks)
  Sync time (average)   =    0.00 sec.
  Wait time (average)   =    0.00 sec.
                          ------------
Total (root+branch&cut) =    5.00 sec. (8559.16 ticks)
Gap: 94.66%
Upper bound: 1.38961e+07
Lower bound: 742665
Termination status: Normal
End of CPLEX run. Time: 5.00451 seconds

===== New CPLEX run =====
Instance: /home/yorig/tuner/mpils-tests/instances/miplib/easy/lotsize.mps
Config: /scratch/yorig/mpils-results-grid-seconds-5-watchdog/easy/24proc/seed-5/4_lotsize_seed-5_20260504_011421/iterated_local_search/run_5_worker_22/ils_config_2206622311393710884.prm
========================

Selected objective sense:  MINIMIZE
Selected objective  name:  R1921
Selected RHS        name:  B
Selected bound      name:  BOUND
Wall watchdog: enabled factor=1 grace=1 limit=6 seconds
Version identifier: 22.1.2.0 | 2024-11-26 | 0edbb82fd
CPXPARAM_Advance                                 0
CPXPARAM_Simplex_PGradient                       -1
CPXPARAM_Preprocessing_Dual                      -1
CPXPARAM_Threads                                 8
CPXPARAM_Parallel                                1
CPXPARAM_MIP_Cuts_Cliques                        1
CPXPARAM_Preprocessing_CoeffReduce               0
CPXPARAM_MIP_Cuts_Covers                         1
CPXPARAM_MIP_Strategy_SubAlgorithm               3
CPXPARAM_Preprocessing_Relax                     0
CPXPARAM_MIP_Cuts_Implied                        2
CPXPARAM_MIP_Cuts_GUBCovers                      2
CPXPARAM_MIP_Limits_GomoryCand                   50
CPXPARAM_MIP_Cuts_Gomory                         1
CPXPARAM_MIP_Cuts_MIRCut                         1
CPXPARAM_MIP_Cuts_Disjunctive                    3
CPXPARAM_MIP_Limits_AggForCut                    2
CPXPARAM_Emphasis_MIP                            2
CPXPARAM_Preprocessing_Symmetry                  2
CPXPARAM_Barrier_Ordering                        3
CPXPARAM_Preprocessing_Fill                      2
CPXPARAM_TimeLimit                               5
CPXPARAM_MIP_Limits_CutsFactor                   16
Tried aggregator 1 time.
MIP Presolve eliminated 590 rows and 0 columns.
MIP Presolve added 1190 rows and 0 columns.
Reduced MIP has 2520 rows, 2985 columns, and 7765 nonzeros.
Reduced MIP has 1195 binaries, 0 generals, 0 SOSs, and 0 indicators.
Presolve time = 0.00 sec. (4.28 ticks)
Probing fixed 0 vars, tightened 5146 bounds.
Probing time = 0.01 sec. (18.21 ticks)
Tried aggregator 2 times.
MIP Presolve eliminated 5 rows and 0 columns.
MIP Presolve modified 616 coefficients.
Aggregator did 10 substitutions.
Reduced MIP has 2505 rows, 2975 columns, and 7735 nonzeros.
Reduced MIP has 1195 binaries, 0 generals, 0 SOSs, and 0 indicators.
Presolve time = 0.00 sec. (7.11 ticks)
Probing fixed 0 vars, tightened 2342 bounds.
Probing time = 0.00 sec. (6.42 ticks)
Clique table members: 190.
MIP emphasis: optimality.
MIP search method: dynamic search.
Parallel mode: deterministic, using up to 8 threads.
Root relaxation solution time = 0.01 sec. (9.34 ticks)

        Nodes                                         Cuts/
   Node  Left     Objective  IInf  Best Integer    Best Bound    ItCnt     Gap

      0     0   348385.3466   472                 348385.3466     1432         
      0     0   485835.1138   606                   Cuts: 726     5582         
*     0+    0                       1.39622e+07   485835.1138            96.52%
*     0+    0                       1.38961e+07   485835.1138            96.50%
      0     0   618495.6518   636   1.38961e+07     Cuts: 726    13879   95.55%
      0     0   742664.7958   677   1.38961e+07     Cuts: 726    21261   94.66%

GUB cover cuts applied:  0
Clique cuts applied:  3
Cover cuts applied:  10
Implied bound cuts applied:  12
Mixed integer rounding cuts applied:  1027
Flow path cuts applied:  41
Multi commodity flow cuts applied:  50
Gomory fractional cuts applied:  18
Disjunctive cuts applied:  87
Cone linearizations applied:  0

Root node processing (before b&c):
  Real time             =    5.00 sec. (8559.68 ticks)
Parallel b&c, 8 threads:
  Real time             =    0.00 sec. (0.00 ticks)
  Sync time (average)   =    0.00 sec.
  Wait time (average)   =    0.00 sec.
                          ------------
Total (root+branch&cut) =    5.00 sec. (8559.68 ticks)
Gap: 94.66%
Upper bound: 1.38961e+07
Lower bound: 742665
Termination status: Normal
End of CPLEX run. Time: 5.00463 seconds

===== New CPLEX run =====
Instance: /home/yorig/tuner/mpils-tests/instances/miplib/easy/lotsize.mps
Config: /scratch/yorig/mpils-results-grid-seconds-5-watchdog/easy/24proc/seed-5/4_lotsize_seed-5_20260504_011421/iterated_local_search/run_5_worker_22/ils_config_6306466605255899472.prm
========================

Selected objective sense:  MINIMIZE
Selected objective  name:  R1921
Selected RHS        name:  B
Selected bound      name:  BOUND
Wall watchdog: enabled factor=1 grace=1 limit=6 seconds
Version identifier: 22.1.2.0 | 2024-11-26 | 0edbb82fd
CPXPARAM_Advance                                 0
CPXPARAM_Simplex_PGradient                       -1
CPXPARAM_Preprocessing_Dual                      -1
CPXPARAM_Threads                                 8
CPXPARAM_Parallel                                1
CPXPARAM_MIP_Cuts_Cliques                        1
CPXPARAM_Preprocessing_CoeffReduce               0
CPXPARAM_MIP_Cuts_Covers                         1
CPXPARAM_MIP_Strategy_SubAlgorithm               3
CPXPARAM_Preprocessing_Relax                     0
CPXPARAM_MIP_Cuts_Implied                        2
CPXPARAM_MIP_Cuts_GUBCovers                      2
CPXPARAM_MIP_Limits_GomoryCand                   50
CPXPARAM_MIP_Cuts_Gomory                         1
CPXPARAM_MIP_Cuts_MIRCut                         1
CPXPARAM_MIP_Cuts_Disjunctive                    3
CPXPARAM_MIP_Limits_AggForCut                    10
CPXPARAM_Emphasis_MIP                            2
CPXPARAM_Preprocessing_Symmetry                  2
CPXPARAM_Barrier_Ordering                        3
CPXPARAM_Preprocessing_Fill                      2
CPXPARAM_TimeLimit                               5
CPXPARAM_MIP_Limits_CutsFactor                   8
Tried aggregator 1 time.
MIP Presolve eliminated 590 rows and 0 columns.
MIP Presolve added 1190 rows and 0 columns.
Reduced MIP has 2520 rows, 2985 columns, and 7765 nonzeros.
Reduced MIP has 1195 binaries, 0 generals, 0 SOSs, and 0 indicators.
Presolve time = 0.00 sec. (4.28 ticks)
Probing fixed 0 vars, tightened 5146 bounds.
Probing time = 0.01 sec. (18.21 ticks)
Tried aggregator 2 times.
MIP Presolve eliminated 5 rows and 0 columns.
MIP Presolve modified 616 coefficients.
Aggregator did 10 substitutions.
Reduced MIP has 2505 rows, 2975 columns, and 7735 nonzeros.
Reduced MIP has 1195 binaries, 0 generals, 0 SOSs, and 0 indicators.
Presolve time = 0.00 sec. (7.11 ticks)
Probing fixed 0 vars, tightened 2342 bounds.
Probing time = 0.00 sec. (6.42 ticks)
Clique table members: 190.
MIP emphasis: optimality.
MIP search method: dynamic search.
Parallel mode: deterministic, using up to 8 threads.
Root relaxation solution time = 0.01 sec. (9.34 ticks)

        Nodes                                         Cuts/
   Node  Left     Objective  IInf  Best Integer    Best Bound    ItCnt     Gap

      0     0   348385.3466   472                 348385.3466     1432         
      0     0   485827.3359   604                   Cuts: 726     5580         
*     0+    0                       1.39622e+07   485827.3359            96.52%
*     0+    0                       1.38961e+07   485827.3359            96.50%
      0     0   623119.3405   638   1.38961e+07     Cuts: 726    13826   95.52%
      0     0   758206.0814   652   1.38961e+07     Cuts: 726    21388   94.54%

GUB cover cuts applied:  0
Clique cuts applied:  3
Cover cuts applied:  10
Implied bound cuts applied:  12
Mixed integer rounding cuts applied:  955
Flow path cuts applied:  36
Multi commodity flow cuts applied:  42
Gomory fractional cuts applied:  18
Disjunctive cuts applied:  76
Cone linearizations applied:  0

Root node processing (before b&c):
  Real time             =    5.01 sec. (8626.18 ticks)
Parallel b&c, 8 threads:
  Real time             =    0.00 sec. (0.00 ticks)
  Sync time (average)   =    0.00 sec.
  Wait time (average)   =    0.00 sec.
                          ------------
Total (root+branch&cut) =    5.01 sec. (8626.18 ticks)
Gap: 94.54%
Upper bound: 1.38961e+07
Lower bound: 758206
Termination status: Normal
End of CPLEX run. Time: 5.00817 seconds

===== New CPLEX run =====
Instance: /home/yorig/tuner/mpils-tests/instances/miplib/easy/lotsize.mps
Config: /scratch/yorig/mpils-results-grid-seconds-5-watchdog/easy/24proc/seed-5/4_lotsize_seed-5_20260504_011421/iterated_local_search/run_5_worker_22/ils_config_1672402586126349514.prm
========================

Selected objective sense:  MINIMIZE
Selected objective  name:  R1921
Selected RHS        name:  B
Selected bound      name:  BOUND
Wall watchdog: enabled factor=1 grace=1 limit=6 seconds
Version identifier: 22.1.2.0 | 2024-11-26 | 0edbb82fd
CPXPARAM_Advance                                 0
CPXPARAM_Simplex_PGradient                       -1
CPXPARAM_Preprocessing_Dual                      -1
CPXPARAM_Threads                                 8
CPXPARAM_Parallel                                1
CPXPARAM_MIP_Cuts_Cliques                        1
CPXPARAM_Preprocessing_CoeffReduce               0
CPXPARAM_MIP_Cuts_Covers                         1
CPXPARAM_MIP_Strategy_SubAlgorithm               3
CPXPARAM_Preprocessing_Relax                     0
CPXPARAM_MIP_Cuts_Implied                        2
CPXPARAM_MIP_Cuts_GUBCovers                      2
CPXPARAM_MIP_Limits_GomoryCand                   150
CPXPARAM_MIP_Cuts_Gomory                         1
CPXPARAM_MIP_Cuts_MIRCut                         1
CPXPARAM_MIP_Cuts_Disjunctive                    3
CPXPARAM_MIP_Limits_AggForCut                    10
CPXPARAM_Emphasis_MIP                            2
CPXPARAM_Preprocessing_Symmetry                  2
CPXPARAM_Barrier_Ordering                        3
CPXPARAM_Preprocessing_Fill                      2
CPXPARAM_TimeLimit                               5
CPXPARAM_MIP_Limits_CutsFactor                   8
Tried aggregator 1 time.
MIP Presolve eliminated 590 rows and 0 columns.
MIP Presolve added 1190 rows and 0 columns.
Reduced MIP has 2520 rows, 2985 columns, and 7765 nonzeros.
Reduced MIP has 1195 binaries, 0 generals, 0 SOSs, and 0 indicators.
Presolve time = 0.00 sec. (4.28 ticks)
Probing fixed 0 vars, tightened 5146 bounds.
Probing time = 0.01 sec. (18.21 ticks)
Tried aggregator 2 times.
MIP Presolve eliminated 5 rows and 0 columns.
MIP Presolve modified 616 coefficients.
Aggregator did 10 substitutions.
Reduced MIP has 2505 rows, 2975 columns, and 7735 nonzeros.
Reduced MIP has 1195 binaries, 0 generals, 0 SOSs, and 0 indicators.
Presolve time = 0.00 sec. (7.11 ticks)
Probing fixed 0 vars, tightened 2342 bounds.
Probing time = 0.00 sec. (6.42 ticks)
Clique table members: 190.
MIP emphasis: optimality.
MIP search method: dynamic search.
Parallel mode: deterministic, using up to 8 threads.
Root relaxation solution time = 0.01 sec. (9.34 ticks)

        Nodes                                         Cuts/
   Node  Left     Objective  IInf  Best Integer    Best Bound    ItCnt     Gap

      0     0   348385.3466   472                 348385.3466     1432         
      0     0   486406.2955   607                   Cuts: 726     5606         
*     0+    0                       1.39622e+07   486406.2955            96.52%
*     0+    0                       1.38961e+07   486406.2955            96.50%
      0     0   618446.3222   657   1.38961e+07     Cuts: 726    13680   95.55%
      0     0   750601.3929   630   1.38961e+07     Cuts: 726    23124   94.60%

GUB cover cuts applied:  0
Clique cuts applied:  3
Cover cuts applied:  10
Implied bound cuts applied:  11
Mixed integer rounding cuts applied:  894
Flow path cuts applied:  34
Multi commodity flow cuts applied:  38
Gomory fractional cuts applied:  45
Disjunctive cuts applied:  68
Cone linearizations applied:  0

Root node processing (before b&c):
  Real time             =    5.01 sec. (8010.66 ticks)
Parallel b&c, 8 threads:
  Real time             =    0.00 sec. (0.00 ticks)
  Sync time (average)   =    0.00 sec.
  Wait time (average)   =    0.00 sec.
                          ------------
Total (root+branch&cut) =    5.01 sec. (8010.66 ticks)
Gap: 94.6%
Upper bound: 1.38961e+07
Lower bound: 750601
Termination status: Normal
End of CPLEX run. Time: 5.00743 seconds

===== New CPLEX run =====
Instance: /home/yorig/tuner/mpils-tests/instances/miplib/easy/lotsize.mps
Config: /scratch/yorig/mpils-results-grid-seconds-5-watchdog/easy/24proc/seed-5/4_lotsize_seed-5_20260504_011421/iterated_local_search/run_5_worker_22/ils_config_4471932407282499836.prm
========================

Selected objective sense:  MINIMIZE
Selected objective  name:  R1921
Selected RHS        name:  B
Selected bound      name:  BOUND
Wall watchdog: enabled factor=1 grace=1 limit=6 seconds
Version identifier: 22.1.2.0 | 2024-11-26 | 0edbb82fd
CPXPARAM_Advance                                 0
CPXPARAM_Simplex_PGradient                       -1
CPXPARAM_Preprocessing_Dual                      -1
CPXPARAM_Threads                                 8
CPXPARAM_Parallel                                1
CPXPARAM_MIP_Cuts_Cliques                        1
CPXPARAM_Preprocessing_CoeffReduce               0
CPXPARAM_MIP_Cuts_Covers                         1
CPXPARAM_MIP_Strategy_SubAlgorithm               3
CPXPARAM_Preprocessing_Relax                     0
CPXPARAM_MIP_Cuts_Implied                        2
CPXPARAM_MIP_Cuts_GUBCovers                      2
CPXPARAM_MIP_Limits_GomoryCand                   50
CPXPARAM_MIP_Cuts_Gomory                         1
CPXPARAM_MIP_Cuts_MIRCut                         1
CPXPARAM_MIP_Cuts_Disjunctive                    3
CPXPARAM_MIP_Limits_AggForCut                    10
CPXPARAM_Emphasis_MIP                            5
CPXPARAM_Preprocessing_Symmetry                  2
CPXPARAM_Barrier_Ordering                        3
CPXPARAM_Preprocessing_Fill                      2
CPXPARAM_TimeLimit                               5
CPXPARAM_MIP_Limits_CutsFactor                   8
Tried aggregator 1 time.
MIP Presolve eliminated 590 rows and 0 columns.
MIP Presolve added 1190 rows and 0 columns.
Reduced MIP has 2520 rows, 2985 columns, and 7765 nonzeros.
Reduced MIP has 1195 binaries, 0 generals, 0 SOSs, and 0 indicators.
Presolve time = 0.00 sec. (4.28 ticks)
Probing fixed 0 vars, tightened 5146 bounds.
Probing time = 0.01 sec. (18.21 ticks)
Tried aggregator 2 times.
MIP Presolve eliminated 5 rows and 0 columns.
MIP Presolve modified 616 coefficients.
Aggregator did 10 substitutions.
Reduced MIP has 2505 rows, 2975 columns, and 7735 nonzeros.
Reduced MIP has 1195 binaries, 0 generals, 0 SOSs, and 0 indicators.
Presolve time = 0.00 sec. (7.11 ticks)
Probing fixed 0 vars, tightened 2342 bounds.
Probing time = 0.00 sec. (6.42 ticks)
Clique table members: 190.
MIP emphasis: heuristic.
MIP search method: dynamic search.
Parallel mode: deterministic, using up to 8 threads.
Root relaxation solution time = 0.01 sec. (9.34 ticks)

        Nodes                                         Cuts/
   Node  Left     Objective  IInf  Best Integer    Best Bound    ItCnt     Gap

      0     0   348385.3466   472                 348385.3466     1432         
*     0+    0                       1.33898e+07   348385.3466            97.40%
      0     0   485827.3359   604   1.33898e+07     Cuts: 726     7016   96.37%
      0     0   630852.2559   641   1.33898e+07     Cuts: 726    15370   95.29%
*     0+    0                      2372120.0000   630852.2559            73.41%
      0     0   761392.1554   652  2372120.0000     Cuts: 726    24784   67.90%

GUB cover cuts applied:  0
Clique cuts applied:  3
Cover cuts applied:  10
Implied bound cuts applied:  11
Mixed integer rounding cuts applied:  947
Flow path cuts applied:  42
Multi commodity flow cuts applied:  45
Gomory fractional cuts applied:  16
Disjunctive cuts applied:  81
Cone linearizations applied:  0

Root node processing (before b&c):
  Real time             =    5.00 sec. (8076.89 ticks)
Parallel b&c, 8 threads:
  Real time             =    0.00 sec. (0.00 ticks)
  Sync time (average)   =    0.00 sec.
  Wait time (average)   =    0.00 sec.
                          ------------
Total (root+branch&cut) =    5.00 sec. (8076.89 ticks)
Gap: 67.9%
Upper bound: 2.37212e+06
Lower bound: 761392
Termination status: Normal
End of CPLEX run. Time: 5.00398 seconds

===== New CPLEX run =====
Instance: /home/yorig/tuner/mpils-tests/instances/miplib/easy/lotsize.mps
Config: /scratch/yorig/mpils-results-grid-seconds-5-watchdog/easy/24proc/seed-5/4_lotsize_seed-5_20260504_011421/iterated_local_search/run_5_worker_22/ils_config_12623580752720482535.prm
========================

Selected objective sense:  MINIMIZE
Selected objective  name:  R1921
Selected RHS        name:  B
Selected bound      name:  BOUND
Wall watchdog: enabled factor=1 grace=1 limit=6 seconds
Version identifier: 22.1.2.0 | 2024-11-26 | 0edbb82fd
CPXPARAM_Advance                                 0
CPXPARAM_Simplex_PGradient                       -1
CPXPARAM_Preprocessing_Dual                      -1
CPXPARAM_Threads                                 8
CPXPARAM_Parallel                                1
CPXPARAM_MIP_Cuts_Cliques                        1
CPXPARAM_Preprocessing_CoeffReduce               0
CPXPARAM_MIP_Cuts_Covers                         1
CPXPARAM_MIP_Strategy_SubAlgorithm               3
CPXPARAM_Preprocessing_Relax                     0
CPXPARAM_MIP_Cuts_Implied                        2
CPXPARAM_MIP_Cuts_GUBCovers                      2
CPXPARAM_MIP_Limits_GomoryCand                   50
CPXPARAM_MIP_Cuts_Gomory                         1
CPXPARAM_MIP_Cuts_MIRCut                         1
CPXPARAM_MIP_Cuts_Disjunctive                    3
CPXPARAM_Emphasis_MIP                            5
CPXPARAM_Preprocessing_Symmetry                  2
CPXPARAM_Barrier_Ordering                        3
CPXPARAM_Preprocessing_Fill                      2
CPXPARAM_TimeLimit                               5
CPXPARAM_MIP_Limits_CutsFactor                   8
Tried aggregator 1 time.
MIP Presolve eliminated 590 rows and 0 columns.
MIP Presolve added 1190 rows and 0 columns.
Reduced MIP has 2520 rows, 2985 columns, and 7765 nonzeros.
Reduced MIP has 1195 binaries, 0 generals, 0 SOSs, and 0 indicators.
Presolve time = 0.00 sec. (4.28 ticks)
Probing fixed 0 vars, tightened 5146 bounds.
Probing time = 0.01 sec. (18.21 ticks)
Tried aggregator 2 times.
MIP Presolve eliminated 5 rows and 0 columns.
MIP Presolve modified 616 coefficients.
Aggregator did 10 substitutions.
Reduced MIP has 2505 rows, 2975 columns, and 7735 nonzeros.
Reduced MIP has 1195 binaries, 0 generals, 0 SOSs, and 0 indicators.
Presolve time = 0.00 sec. (7.11 ticks)
Probing fixed 0 vars, tightened 2342 bounds.
Probing time = 0.00 sec. (6.42 ticks)
Clique table members: 190.
MIP emphasis: heuristic.
MIP search method: dynamic search.
Parallel mode: deterministic, using up to 8 threads.
Root relaxation solution time = 0.01 sec. (9.34 ticks)

        Nodes                                         Cuts/
   Node  Left     Objective  IInf  Best Integer    Best Bound    ItCnt     Gap

      0     0   348385.3466   472                 348385.3466     1432         
*     0+    0                       1.33898e+07   348385.3466            97.40%
      0     0   485827.2726   604   1.33898e+07     Cuts: 726     7013   96.37%
      0     0   630501.1321   637   1.33898e+07     Cuts: 726    15377   95.29%
      0     0   749500.7850   660   1.33898e+07     Cuts: 726    24827   94.40%

GUB cover cuts applied:  0
Clique cuts applied:  3
Cover cuts applied:  10
Implied bound cuts applied:  12
Mixed integer rounding cuts applied:  947
Flow path cuts applied:  47
Multi commodity flow cuts applied:  49
Gomory fractional cuts applied:  18
Disjunctive cuts applied:  82
Cone linearizations applied:  0

Root node processing (before b&c):
  Real time             =    5.00 sec. (8034.79 ticks)
Parallel b&c, 8 threads:
  Real time             =    0.00 sec. (0.00 ticks)
  Sync time (average)   =    0.00 sec.
  Wait time (average)   =    0.00 sec.
                          ------------
Total (root+branch&cut) =    5.00 sec. (8034.79 ticks)
Gap: 94.4%
Upper bound: 1.33898e+07
Lower bound: 749501
Termination status: Normal
End of CPLEX run. Time: 5.00362 seconds
